data/solutions/recovery/degenerate/intermediate/flexible/degenerate_intermediate_instance21/65.sol
Elapsed time: 100.12
Upper bound: 28132837.0
Planning weighted value: 1.22426111302e+11
C[0]=28132837.0
C[1]=28130513.0
C[2]=28129451.0
C[3]=28110631.0
C[4]=28101421.0
C[5]=28098854.0
C[6]=28098530.0
C[7]=28077759.0
C[8]=28069172.0
C[9]=28049378.0
C[10]=0.0
C[11]=0.0
y[0]=7
y[1]=0
y[2]=0
y[3]=3
y[4]=9
y[5]=3
y[6]=7
y[7]=8
y[8]=2
y[9]=5
y[10]=4
y[11]=6
y[12]=6
y[13]=0
y[14]=9
y[15]=9
y[16]=0
y[17]=3
y[18]=9
y[19]=5
y[20]=2
y[21]=4
y[22]=6
y[23]=9
y[24]=6
y[25]=1
y[26]=5
y[27]=0
y[28]=8
y[29]=5
y[30]=5
y[31]=4
y[32]=3
y[33]=7
y[34]=0
y[35]=1
y[36]=2
y[37]=7
y[38]=8
y[39]=4
y[40]=3
y[41]=2
y[42]=1
y[43]=3
y[44]=1
y[45]=1
y[46]=9
y[47]=9
y[48]=8
y[49]=2
y[50]=3
y[51]=7
y[52]=4
y[53]=8
y[54]=7
y[55]=3
y[56]=6
y[57]=8
y[58]=6
y[59]=0
y[60]=4
y[61]=3
y[62]=2
y[63]=2
y[64]=2
