data/solutions/recovery/degenerate/intermediate/flexible/degenerate_intermediate_instance21/65.log

Log started (V12.6.3.0) Sat Apr 21 13:23:11 2018

New value for default parallel thread count: 1

Problem '/tmp/tmprLnIV6.pyomo.lp' read.
Read time = 0.01 sec. (0.46 ticks)

Problem name         : /tmp/tmprLnIV6.pyomo.lp
Objective sense      : Minimize
Variables            :     794  [Nneg: 1,  Binary: 780,  General Integer: 13]
Objective nonzeros   :       1
Linear constraints   :     157  [Less: 77,  Equal: 80]
  Nonzeros           :   32436
  RHS nonzeros       :     131

Variables            : Min LB: 0.000000         Max UB: 1.000000       
Objective nonzeros   : Min   : 1.000000         Max   : 1.000000       
Linear constraints   :
  Nonzeros           : Min   : 1.000000         Max   : 8298339.       
  RHS nonzeros       : Min   : 1.000000         Max   : 7.000000       
Tried aggregator 2 times.
MIP Presolve eliminated 73 rows and 162 columns.
Aggregator did 1 substitutions.
Reduced MIP has 83 rows, 631 columns, and 1648 nonzeros.
Reduced MIP has 620 binaries, 11 generals, 0 SOSs, and 0 indicators.
Presolve time = 0.01 sec. (6.07 ticks)
Found incumbent of value 1.0993888e+08 after 0.01 sec. (7.00 ticks)
Probing time = 0.00 sec. (1.74 ticks)
Cover probing fixed 0 vars, tightened 21 bounds.
Tried aggregator 2 times.
Aggregator did 10 substitutions.
Reduced MIP has 73 rows, 621 columns, and 1628 nonzeros.
Reduced MIP has 620 binaries, 1 generals, 0 SOSs, and 0 indicators.
Presolve time = 0.00 sec. (1.58 ticks)
Probing time = 0.00 sec. (0.94 ticks)
Cover probing fixed 0 vars, tightened 6 bounds.
Clique table members: 62.
MIP emphasis: balance optimality and feasibility.
MIP search method: dynamic search.
Parallel mode: none, using 1 thread.
Root relaxation solution time = 0.00 sec. (0.62 ticks)

        Nodes                                         Cuts/
   Node  Left     Objective  IInf  Best Integer    Best Bound    ItCnt     Gap

*     0+    0                       1.09939e+08        0.0000           100.00%
      0     0   2.80999e+07    17   1.09939e+08   2.80999e+07       27   74.44%
*     0+    0                       3.42230e+07   2.80999e+07            17.89%
      0     0   2.80999e+07    24   3.42230e+07      Fract: 9       54   17.89%
*     0+    0                       3.34929e+07   2.80999e+07            16.10%
      0     0   2.80999e+07    24   3.34929e+07       Cuts: 9       85   16.10%
*     0+    0                       3.24319e+07   2.80999e+07            13.36%
*     0+    0                       3.06625e+07   2.80999e+07             8.36%
*     0+    0                       3.00168e+07   2.80999e+07             6.39%
      0     2   2.80999e+07    15   3.00168e+07   2.80999e+07       85    6.39%
Elapsed time = 0.04 sec. (38.39 ticks, tree = 0.01 MB, solutions = 5)
*    50+   36                       2.94600e+07   2.80999e+07             4.62%
*   520+  368                       2.93408e+07   2.80999e+07             4.23%
*   600+  413                       2.92530e+07   2.80999e+07             3.94%
*   999+  506                       2.92491e+07   2.80999e+07             3.93%
    999   507   2.80999e+07    20   2.92491e+07   2.80999e+07     6163    3.93%
   1000   508   2.80999e+07    20   2.92491e+07   2.80999e+07     6173    3.93%
   1001   508   2.80999e+07    20   2.92491e+07   2.80999e+07     6174    3.93%
   1002   508   2.80999e+07    18   2.92491e+07   2.80999e+07     6179    3.93%
   1003   509   2.80999e+07    18   2.92491e+07   2.80999e+07     6180    3.93%
   1004   509   2.80999e+07    19   2.92491e+07   2.80999e+07     6186    3.93%
   1005   510   2.80999e+07    20   2.92491e+07   2.80999e+07     6189    3.93%
   1006   510   2.80999e+07    19   2.92491e+07   2.80999e+07     6194    3.93%
   1007   511   2.80999e+07    18   2.92491e+07   2.80999e+07     6196    3.93%
*  1009+  343                       2.90237e+07   2.80999e+07             3.18%
*  1039+  210                       2.89241e+07   2.80999e+07             2.85%
*  1099+  124                       2.88420e+07   2.80999e+07             2.57%
*  1099+   96                       2.87312e+07   2.80999e+07             2.20%
*  1099+   77                       2.84887e+07   2.80999e+07             1.36%
*  1199+   79                       2.84543e+07   2.80999e+07             1.25%
*  1199+   69                       2.83817e+07   2.80999e+07             0.99%
*  1199+   68                       2.83413e+07   2.80999e+07             0.85%
*  1199+   68                       2.83078e+07   2.80999e+07             0.73%
*  1199+   68                       2.82362e+07   2.80999e+07             0.48%
*  1199+   68                       2.82337e+07   2.80999e+07             0.47%
*  1299+   82                       2.82188e+07   2.80999e+07             0.42%
   1499   174   2.80999e+07    15   2.82188e+07   2.80999e+07     8378    0.42%
Elapsed time = 0.87 sec. (1032.07 ticks, tree = 0.09 MB, solutions = 21)
   4494  1936   2.80999e+07    16   2.82188e+07   2.80999e+07    23378    0.42%
   4495  1935        cutoff         2.82188e+07   2.80999e+07    23388    0.42%
   4496  1936   2.80999e+07    16   2.82188e+07   2.80999e+07    23393    0.42%
   4497  1937   2.80999e+07    16   2.82188e+07   2.80999e+07    23394    0.42%
   4498  1938   2.80999e+07    15   2.82188e+07   2.80999e+07    23396    0.42%
   4499  1939   2.80999e+07    17   2.82188e+07   2.80999e+07    23399    0.42%
   4500  1938        cutoff         2.82188e+07   2.80999e+07    23403    0.42%
   4501  1938   2.80999e+07    18   2.82188e+07   2.80999e+07    23406    0.42%
   4502  1939   2.80999e+07    17   2.82188e+07   2.80999e+07    23407    0.42%
   4503  1940   2.80999e+07    17   2.82188e+07   2.80999e+07    23408    0.42%
Elapsed time = 1.68 sec. (1987.14 ticks, tree = 0.97 MB, solutions = 21)
   8976  4454        cutoff         2.82188e+07   2.80999e+07    49548    0.42%
   8977  4453    infeasible         2.82188e+07   2.80999e+07    49566    0.42%
   8978  4452        cutoff         2.82188e+07   2.80999e+07    49573    0.42%
   8979  4451        cutoff         2.82188e+07   2.80999e+07    49580    0.42%
   8980  4452   2.80999e+07    19   2.82188e+07   2.80999e+07    49589    0.42%
   8981  4453   2.80999e+07    17   2.82188e+07   2.80999e+07    49595    0.42%
   8982  4454   2.80999e+07    17   2.82188e+07   2.80999e+07    49601    0.42%
   8983  4455   2.80999e+07    17   2.82188e+07   2.80999e+07    49603    0.42%
   8984  4456   2.80999e+07    18   2.82188e+07   2.80999e+07    49620    0.42%
   8985  4457   2.80999e+07    17   2.82188e+07   2.80999e+07    49627    0.42%
Elapsed time = 2.46 sec. (2943.76 ticks, tree = 2.32 MB, solutions = 21)
* 10959+ 5525                       2.81915e+07   2.80999e+07             0.33%
* 10959+ 5476                       2.81597e+07   2.80999e+07             0.21%
  12312  5796        cutoff         2.81597e+07   2.80999e+07    71812    0.21%
  12313  5795    infeasible         2.81597e+07   2.80999e+07    71812    0.21%
  12314  5794        cutoff         2.81597e+07   2.80999e+07    71825    0.21%
  12315  5793        cutoff         2.81597e+07   2.80999e+07    71839    0.21%
  12316  5792        cutoff         2.81597e+07   2.80999e+07    71872    0.21%
  12317  5791        cutoff         2.81597e+07   2.80999e+07    71890    0.21%
  12318  5790        cutoff         2.81597e+07   2.80999e+07    71919    0.21%
  12319  5789        cutoff         2.81597e+07   2.80999e+07    71929    0.21%
  12320  5788    infeasible         2.81597e+07   2.80999e+07    71929    0.21%
  12321  5787    infeasible         2.81597e+07   2.80999e+07    71931    0.21%
Elapsed time = 3.34 sec. (3901.30 ticks, tree = 2.95 MB, solutions = 23)
  16141  7505   2.80999e+07    17   2.81597e+07   2.80999e+07    98400    0.21%
  16142  7506   2.80999e+07    15   2.81597e+07   2.80999e+07    98404    0.21%
  16143  7507   2.80999e+07    16   2.81597e+07   2.80999e+07    98419    0.21%
  16144  7508   2.80999e+07    17   2.81597e+07   2.80999e+07    98432    0.21%
  16145  7509   2.80999e+07    16   2.81597e+07   2.80999e+07    98444    0.21%
  16146  7510   2.80999e+07    17   2.81597e+07   2.80999e+07    98446    0.21%
  16147  7511   2.80999e+07    16   2.81597e+07   2.80999e+07    98457    0.21%
  16148  7512   2.80999e+07    15   2.81597e+07   2.80999e+07    98459    0.21%
  16149  7513   2.80999e+07    17   2.81597e+07   2.80999e+07    98466    0.21%
  16150  7512        cutoff         2.81597e+07   2.80999e+07    98477    0.21%
Elapsed time = 4.13 sec. (4857.19 ticks, tree = 3.74 MB, solutions = 23)
  19961  8605    infeasible         2.81597e+07   2.80999e+07   125688    0.21%
  19962  8606   2.80999e+07    16   2.81597e+07   2.80999e+07   125690    0.21%
  19963  8607   2.80999e+07    18   2.81597e+07   2.80999e+07   125696    0.21%
  19964  8608   2.80999e+07    22   2.81597e+07   2.80999e+07   125717    0.21%
  19965  8608   2.80999e+07    21   2.81597e+07   2.80999e+07   125718    0.21%
  19966  8609   2.80999e+07    22   2.81597e+07   2.80999e+07   125729    0.21%
  19967  8610   2.80999e+07    21   2.81597e+07   2.80999e+07   125735    0.21%
  19968  8611   2.80999e+07    20   2.81597e+07   2.80999e+07   125736    0.21%
  19969  8612   2.80999e+07    22   2.81597e+07   2.80999e+07   125745    0.21%
  19970  8611        cutoff         2.81597e+07   2.80999e+07   125752    0.21%
Elapsed time = 4.92 sec. (5813.53 ticks, tree = 4.47 MB, solutions = 23)
  23522  9666   2.80999e+07    25   2.81597e+07   2.80999e+07   154272    0.21%
  23523  9667   2.80999e+07    19   2.81597e+07   2.80999e+07   154291    0.21%
  23524  9668   2.80999e+07    19   2.81597e+07   2.80999e+07   154295    0.21%
  23525  9669   2.80999e+07    19   2.81597e+07   2.80999e+07   154297    0.21%
  23526  9670   2.80999e+07    17   2.81597e+07   2.80999e+07   154332    0.21%
  23527  9671   2.80999e+07    15   2.81597e+07   2.80999e+07   154341    0.21%
  23528  9672   2.80999e+07    20   2.81597e+07   2.80999e+07   154350    0.21%
  23529  9673   2.80999e+07    18   2.81597e+07   2.80999e+07   154363    0.21%
  23530  9672        cutoff         2.81597e+07   2.80999e+07   154370    0.21%
  23531  9671        cutoff         2.81597e+07   2.80999e+07   154391    0.21%
Elapsed time = 5.73 sec. (6772.31 ticks, tree = 4.97 MB, solutions = 23)
  26644 10980        cutoff         2.81597e+07   2.80999e+07   184991    0.21%
  26645 10980   2.80999e+07    22   2.81597e+07   2.80999e+07   185048    0.21%
  26646 10981   2.80999e+07    19   2.81597e+07   2.80999e+07   185056    0.21%
  26647 10981   2.80999e+07    20   2.81597e+07   2.80999e+07   185067    0.21%
  26648 10980        cutoff         2.81597e+07   2.80999e+07   185071    0.21%
  26649 10979        cutoff         2.81597e+07   2.80999e+07   185105    0.21%
  26650 10978        cutoff         2.81597e+07   2.80999e+07   185156    0.21%
  26651 10977        cutoff         2.81597e+07   2.80999e+07   185191    0.21%
  26652 10976        cutoff         2.81597e+07   2.80999e+07   185232    0.21%
  26653 10975        cutoff         2.81597e+07   2.80999e+07   185282    0.21%
Elapsed time = 6.51 sec. (7733.92 ticks, tree = 5.59 MB, solutions = 23)
  29760 12365   2.80999e+07    22   2.81597e+07   2.80999e+07   216205    0.21%
  29761 12366   2.80999e+07    22   2.81597e+07   2.80999e+07   216217    0.21%
  29762 12367   2.80999e+07    21   2.81597e+07   2.80999e+07   216231    0.21%
  29763 12368   2.80999e+07    22   2.81597e+07   2.80999e+07   216237    0.21%
  29764 12369   2.80999e+07    23   2.81597e+07   2.80999e+07   216245    0.21%
  29765 12370   2.80999e+07    23   2.81597e+07   2.80999e+07   216252    0.21%
  29766 12371   2.80999e+07    21   2.81597e+07   2.80999e+07   216261    0.21%
  29767 12372   2.80999e+07    20   2.81597e+07   2.80999e+07   216262    0.21%
  29768 12371        cutoff         2.81597e+07   2.80999e+07   216264    0.21%
  29769 12370        cutoff         2.81597e+07   2.80999e+07   216265    0.21%
Elapsed time = 7.29 sec. (8689.00 ticks, tree = 6.25 MB, solutions = 23)
  32233 12806        cutoff         2.81597e+07   2.80999e+07   248287    0.21%
  32234 12807   2.80999e+07    21   2.81597e+07   2.80999e+07   248298    0.21%
  32235 12808   2.80999e+07    19   2.81597e+07   2.80999e+07   248306    0.21%
  32236 12809   2.80999e+07    19   2.81597e+07   2.80999e+07   248309    0.21%
  32237 12810   2.80999e+07    21   2.81597e+07   2.80999e+07   248316    0.21%
  32238 12811   2.80999e+07    20   2.81597e+07   2.80999e+07   248319    0.21%
  32239 12812   2.80999e+07    18   2.81597e+07   2.80999e+07   248321    0.21%
  32240 12813   2.80999e+07    17   2.81597e+07   2.80999e+07   248322    0.21%
  32241 12814   2.80999e+07    17   2.81597e+07   2.80999e+07   248326    0.21%
* 39878 15657      integral     0   2.81594e+07   2.80999e+07   334841    0.21%
  40565 16034   2.80999e+07    17   2.81594e+07   2.80999e+07   341649    0.21%
Elapsed time = 10.41 sec. (12504.09 ticks, tree = 7.99 MB, solutions = 24)
  51970 22257        cutoff         2.81594e+07   2.80999e+07   448908    0.21%
  51971 22256        cutoff         2.81594e+07   2.80999e+07   448941    0.21%
  51972 22257   2.80999e+07    17   2.81594e+07   2.80999e+07   448955    0.21%
  51973 22258   2.80999e+07    16   2.81594e+07   2.80999e+07   448990    0.21%
  51974 22259   2.80999e+07    17   2.81594e+07   2.80999e+07   448993    0.21%
  51975 22260   2.80999e+07    15   2.81594e+07   2.80999e+07   449004    0.21%
  51976 22261   2.80999e+07    15   2.81594e+07   2.80999e+07   449007    0.21%
  51977 22260    infeasible         2.81594e+07   2.80999e+07   449007    0.21%
  51978 22259        cutoff         2.81594e+07   2.80999e+07   449020    0.21%
  51979 22258    infeasible         2.81594e+07   2.80999e+07   449020    0.21%
Elapsed time = 13.49 sec. (16323.81 ticks, tree = 11.47 MB, solutions = 24)
  60465 25672        cutoff         2.81594e+07   2.80999e+07   551629    0.21%
  60466 25673   2.80999e+07    19   2.81594e+07   2.80999e+07   551650    0.21%
  60467 25674   2.80999e+07    19   2.81594e+07   2.80999e+07   551652    0.21%
  60468 25675   2.80999e+07    19   2.81594e+07   2.80999e+07   551653    0.21%
  60469 25676   2.80999e+07    21   2.81594e+07   2.80999e+07   551657    0.21%
  60470 25677   2.80999e+07    19   2.81594e+07   2.80999e+07   551660    0.21%
  60471 25678   2.80999e+07    21   2.81594e+07   2.80999e+07   551669    0.21%
  60472 25679   2.80999e+07    21   2.81594e+07   2.80999e+07   551677    0.21%
  60473 25680   2.80999e+07    22   2.81594e+07   2.80999e+07   551678    0.21%
  60474 25681   2.80999e+07    20   2.81594e+07   2.80999e+07   551679    0.21%
Elapsed time = 16.50 sec. (20142.61 ticks, tree = 13.16 MB, solutions = 24)
  69625 29517        cutoff         2.81594e+07   2.80999e+07   658173    0.21%
  69626 29516        cutoff         2.81594e+07   2.80999e+07   658209    0.21%
  69627 29515   2.81432e+07    30   2.81594e+07   2.80999e+07   658329    0.21%
  69628 29514    infeasible         2.81594e+07   2.80999e+07   658329    0.21%
  69629 29513        cutoff         2.81594e+07   2.80999e+07   658356    0.21%
  69630 29512        cutoff         2.81594e+07   2.80999e+07   658393    0.21%
  69631 29513   2.80999e+07    17   2.81594e+07   2.80999e+07   658449    0.21%
  69632 29514   2.81130e+07    18   2.81594e+07   2.80999e+07   658475    0.21%
  69633 29513        cutoff         2.81594e+07   2.80999e+07   658491    0.21%
  69634 29512        cutoff         2.81594e+07   2.80999e+07   658492    0.21%
Elapsed time = 19.47 sec. (23975.38 ticks, tree = 14.98 MB, solutions = 24)
  77348 34092   2.80999e+07    21   2.81594e+07   2.80999e+07   754573    0.21%
  77349 34093   2.80999e+07    19   2.81594e+07   2.80999e+07   754574    0.21%
  77350 34094   2.80999e+07    19   2.81594e+07   2.80999e+07   754583    0.21%
  77351 34095   2.80999e+07    19   2.81594e+07   2.80999e+07   754588    0.21%
  77352 34096   2.80999e+07    18   2.81594e+07   2.80999e+07   754601    0.21%
  77353 34097   2.80999e+07    17   2.81594e+07   2.80999e+07   754610    0.21%
  77354 34098   2.80999e+07    18   2.81594e+07   2.80999e+07   754614    0.21%
  77355 34099   2.80999e+07    17   2.81594e+07   2.80999e+07   754625    0.21%
  77356 34100   2.80999e+07    17   2.81594e+07   2.80999e+07   754644    0.21%
  77357 34099        cutoff         2.81594e+07   2.80999e+07   754655    0.21%
Elapsed time = 22.33 sec. (27792.71 ticks, tree = 18.05 MB, solutions = 24)
  85007 38321   2.80999e+07    15   2.81594e+07   2.80999e+07   858593    0.21%
  85008 38322   2.80999e+07    21   2.81594e+07   2.80999e+07   858612    0.21%
  85009 38323   2.80999e+07    20   2.81594e+07   2.80999e+07   858615    0.21%
  85010 38324   2.80999e+07    20   2.81594e+07   2.80999e+07   858616    0.21%
  85011 38325   2.80999e+07    18   2.81594e+07   2.80999e+07   858618    0.21%
  85012 38326   2.80999e+07    25   2.81594e+07   2.80999e+07   858643    0.21%
  85013 38327   2.80999e+07    22   2.81594e+07   2.80999e+07   858663    0.21%
  85014 38328   2.80999e+07    25   2.81594e+07   2.80999e+07   858678    0.21%
  85015 38329   2.80999e+07    24   2.81594e+07   2.80999e+07   858681    0.21%
  85016 38330   2.80999e+07    26   2.81594e+07   2.80999e+07   858688    0.21%
Elapsed time = 25.16 sec. (31612.67 ticks, tree = 20.02 MB, solutions = 24)
  92713 42957   2.80999e+07    19   2.81594e+07   2.80999e+07   956232    0.21%
  92714 42958   2.80999e+07    19   2.81594e+07   2.80999e+07   956236    0.21%
  92715 42959   2.80999e+07    17   2.81594e+07   2.80999e+07   956250    0.21%
  92716 42960   2.80999e+07    17   2.81594e+07   2.80999e+07   956255    0.21%
  92717 42961   2.80999e+07    19   2.81594e+07   2.80999e+07   956276    0.21%
  92718 42962   2.80999e+07    24   2.81594e+07   2.80999e+07   956297    0.21%
  92719 42963   2.80999e+07    19   2.81594e+07   2.80999e+07   956307    0.21%
  92720 42964   2.80999e+07    19   2.81594e+07   2.80999e+07   956311    0.21%
  92721 42965   2.80999e+07    18   2.81594e+07   2.80999e+07   956318    0.21%
  92722 42966   2.80999e+07    17   2.81594e+07   2.80999e+07   956323    0.21%
Elapsed time = 27.99 sec. (35431.10 ticks, tree = 22.20 MB, solutions = 24)
  99685 45821        cutoff         2.81594e+07   2.80999e+07  1058531    0.21%
  99686 45822   2.80999e+07    19   2.81594e+07   2.80999e+07  1058542    0.21%
  99687 45823   2.80999e+07    19   2.81594e+07   2.80999e+07  1058543    0.21%
  99688 45824   2.80999e+07    19   2.81594e+07   2.80999e+07  1058546    0.21%
  99689 45825   2.80999e+07    20   2.81594e+07   2.80999e+07  1058553    0.21%
  99690 45826   2.80999e+07    20   2.81594e+07   2.80999e+07  1058570    0.21%
  99691 45827   2.80999e+07    20   2.81594e+07   2.80999e+07  1058581    0.21%
  99692 45828   2.80999e+07    20   2.81594e+07   2.80999e+07  1058585    0.21%
  99693 45829   2.80999e+07    28   2.81594e+07   2.80999e+07  1058646    0.21%
  99694 45830   2.80999e+07    17   2.81594e+07   2.80999e+07  1058705    0.21%
Elapsed time = 30.85 sec. (39250.38 ticks, tree = 23.56 MB, solutions = 24)
 105658 47835   2.80999e+07    16   2.81594e+07   2.80999e+07  1162415    0.21%
 105659 47836   2.80999e+07    16   2.81594e+07   2.80999e+07  1162433    0.21%
 105660 47837   2.80999e+07    16   2.81594e+07   2.80999e+07  1162455    0.21%
 105661 47838   2.80999e+07    14   2.81594e+07   2.80999e+07  1162460    0.21%
 105662 47839   2.80999e+07    17   2.81594e+07   2.80999e+07  1162484    0.21%
 105663 47838        cutoff         2.81594e+07   2.80999e+07  1162545    0.21%
 105664 47837        cutoff         2.81594e+07   2.80999e+07  1162555    0.21%
 105665 47836        cutoff         2.81594e+07   2.80999e+07  1162576    0.21%
 105666 47835        cutoff         2.81594e+07   2.80999e+07  1162582    0.21%
 105667 47834        cutoff         2.81594e+07   2.80999e+07  1162655    0.21%
Elapsed time = 33.64 sec. (43071.55 ticks, tree = 24.51 MB, solutions = 24)
 110961 49242   2.80999e+07    22   2.81594e+07   2.80999e+07  1264956    0.21%
 110962 49243   2.80999e+07    18   2.81594e+07   2.80999e+07  1264967    0.21%
 110963 49244   2.80999e+07    21   2.81594e+07   2.80999e+07  1264982    0.21%
 110964 49245   2.80999e+07    19   2.81594e+07   2.80999e+07  1264994    0.21%
 110965 49246   2.80999e+07    22   2.81594e+07   2.80999e+07  1265001    0.21%
 110966 49247   2.80999e+07    22   2.81594e+07   2.80999e+07  1265003    0.21%
 110967 49248   2.80999e+07    19   2.81594e+07   2.80999e+07  1265006    0.21%
 110968 49249   2.80999e+07    26   2.81594e+07   2.80999e+07  1265017    0.21%
 110969 49250   2.80999e+07    24   2.81594e+07   2.80999e+07  1265018    0.21%
 110970 49250   2.81025e+07    28   2.81594e+07   2.80999e+07  1265036    0.21%
Elapsed time = 36.45 sec. (46889.35 ticks, tree = 25.21 MB, solutions = 24)
 116278 51724   2.80999e+07    25   2.81594e+07   2.80999e+07  1367565    0.21%
 116279 51725   2.80999e+07    21   2.81594e+07   2.80999e+07  1367583    0.21%
 116280 51726   2.80999e+07    27   2.81594e+07   2.80999e+07  1367619    0.21%
 116281 51727   2.80999e+07    23   2.81594e+07   2.80999e+07  1367623    0.21%
 116282 51728   2.80999e+07    23   2.81594e+07   2.80999e+07  1367629    0.21%
 116283 51729   2.80999e+07    23   2.81594e+07   2.80999e+07  1367632    0.21%
 116284 51730   2.80999e+07    24   2.81594e+07   2.80999e+07  1367634    0.21%
 116285 51731   2.80999e+07    23   2.81594e+07   2.80999e+07  1367645    0.21%
 116286 51732   2.80999e+07    20   2.81594e+07   2.80999e+07  1367677    0.21%
 116287 51733   2.80999e+07    21   2.81594e+07   2.80999e+07  1367700    0.21%
Elapsed time = 39.25 sec. (50710.40 ticks, tree = 26.42 MB, solutions = 24)
 121584 53998        cutoff         2.81594e+07   2.80999e+07  1475801    0.21%
 121585 53999   2.80999e+07    19   2.81594e+07   2.80999e+07  1475808    0.21%
 121586 54000   2.80999e+07    19   2.81594e+07   2.80999e+07  1475812    0.21%
 121587 54001   2.80999e+07    18   2.81594e+07   2.80999e+07  1475820    0.21%
 121588 54002   2.80999e+07    18   2.81594e+07   2.80999e+07  1475824    0.21%
 121589 54003   2.80999e+07    16   2.81594e+07   2.80999e+07  1475825    0.21%
 121590 54004   2.80999e+07    18   2.81594e+07   2.80999e+07  1475842    0.21%
 121591 54005   2.80999e+07    17   2.81594e+07   2.80999e+07  1475844    0.21%
 121592 54006   2.80999e+07    20   2.81594e+07   2.80999e+07  1475861    0.21%
 121593 54005        cutoff         2.81594e+07   2.80999e+07  1475873    0.21%
Elapsed time = 42.05 sec. (54527.52 ticks, tree = 27.54 MB, solutions = 24)
 127121 56358        cutoff         2.81594e+07   2.80999e+07  1578225    0.21%
 127122 56359   2.80999e+07    27   2.81594e+07   2.80999e+07  1578231    0.21%
 127123 56360   2.80999e+07    25   2.81594e+07   2.80999e+07  1578235    0.21%
 127124 56359        cutoff         2.81594e+07   2.80999e+07  1578266    0.21%
 127125 56360   2.80999e+07    27   2.81594e+07   2.80999e+07  1578274    0.21%
 127126 56361   2.80999e+07    25   2.81594e+07   2.80999e+07  1578275    0.21%
 127127 56360   2.81148e+07    25   2.81594e+07   2.80999e+07  1578277    0.21%
 127128 56359        cutoff         2.81594e+07   2.80999e+07  1578284    0.21%
 127129 56360   2.80999e+07    24   2.81594e+07   2.80999e+07  1578326    0.21%
 127130 56361   2.80999e+07    23   2.81594e+07   2.80999e+07  1578327    0.21%
Elapsed time = 44.85 sec. (58345.88 ticks, tree = 28.70 MB, solutions = 24)
 133889 59137   2.80999e+07    17   2.81594e+07   2.80999e+07  1694444    0.21%
 133890 59136        cutoff         2.81594e+07   2.80999e+07  1694453    0.21%
 133891 59135        cutoff         2.81594e+07   2.80999e+07  1694478    0.21%
 133892 59134        cutoff         2.81594e+07   2.80999e+07  1694491    0.21%
 133893 59133    infeasible         2.81594e+07   2.80999e+07  1694509    0.21%
 133894 59134   2.80999e+07    21   2.81594e+07   2.80999e+07  1694532    0.21%
 133895 59135   2.80999e+07    22   2.81594e+07   2.80999e+07  1694535    0.21%
 133896 59136   2.80999e+07    22   2.81594e+07   2.80999e+07  1694536    0.21%
 133897 59137   2.80999e+07    22   2.81594e+07   2.80999e+07  1694539    0.21%
 133898 59138   2.80999e+07    23   2.81594e+07   2.80999e+07  1694540    0.21%
Elapsed time = 47.75 sec. (62165.01 ticks, tree = 30.07 MB, solutions = 24)
 140498 61733        cutoff         2.81594e+07   2.80999e+07  1812931    0.21%
 140499 61732        cutoff         2.81594e+07   2.80999e+07  1813023    0.21%
 140500 61733   2.80999e+07    24   2.81594e+07   2.80999e+07  1813081    0.21%
 140501 61734   2.80999e+07    24   2.81594e+07   2.80999e+07  1813089    0.21%
 140502 61735   2.80999e+07    26   2.81594e+07   2.80999e+07  1813101    0.21%
 140503 61736   2.80999e+07    24   2.81594e+07   2.80999e+07  1813159    0.21%
 140504 61737   2.80999e+07    22   2.81594e+07   2.80999e+07  1813189    0.21%
 140505 61738   2.80999e+07    28   2.81594e+07   2.80999e+07  1813211    0.21%
 140506 61739   2.80999e+07    23   2.81594e+07   2.80999e+07  1813220    0.21%
 140507 61740   2.80999e+07    26   2.81594e+07   2.80999e+07  1813244    0.21%
Elapsed time = 50.65 sec. (65988.14 ticks, tree = 31.37 MB, solutions = 24)
 147155 64260   2.80999e+07    15   2.81594e+07   2.80999e+07  1938813    0.21%
 147156 64261   2.80999e+07    15   2.81594e+07   2.80999e+07  1938830    0.21%
 147157 64262   2.80999e+07    15   2.81594e+07   2.80999e+07  1938883    0.21%
 147158 64263   2.80999e+07    15   2.81594e+07   2.80999e+07  1938910    0.21%
 147159 64264   2.80999e+07    15   2.81594e+07   2.80999e+07  1938956    0.21%
 147160 64265   2.80999e+07    15   2.81594e+07   2.80999e+07  1938975    0.21%
 147161 64266   2.80999e+07    15   2.81594e+07   2.80999e+07  1938993    0.21%
 147162 64267   2.80999e+07    15   2.81594e+07   2.80999e+07  1939024    0.21%
 147163 64268   2.80999e+07    16   2.81594e+07   2.80999e+07  1939088    0.21%
 147164 64269   2.80999e+07    15   2.81594e+07   2.80999e+07  1939112    0.21%
Elapsed time = 53.48 sec. (69809.72 ticks, tree = 32.64 MB, solutions = 24)
 155208 66521   2.80999e+07    27   2.81594e+07   2.80999e+07  2068977    0.21%
 155209 66522   2.80999e+07    24   2.81594e+07   2.80999e+07  2068983    0.21%
 155210 66523   2.80999e+07    23   2.81594e+07   2.80999e+07  2068992    0.21%
 155211 66522    infeasible         2.81594e+07   2.80999e+07  2068992    0.21%
 155212 66521    infeasible         2.81594e+07   2.80999e+07  2068992    0.21%
 155213 66522   2.80999e+07    27   2.81594e+07   2.80999e+07  2069049    0.21%
 155214 66521    infeasible         2.81594e+07   2.80999e+07  2069049    0.21%
 155215 66522   2.80999e+07    24   2.81594e+07   2.80999e+07  2069057    0.21%
 155216 66521    infeasible         2.81594e+07   2.80999e+07  2069057    0.21%
 155217 66520    infeasible         2.81594e+07   2.80999e+07  2069057    0.21%
Elapsed time = 56.50 sec. (73627.72 ticks, tree = 35.82 MB, solutions = 24)
 164599 67343   2.80999e+07    19   2.81594e+07   2.80999e+07  2214265    0.21%
 164600 67342    infeasible         2.81594e+07   2.80999e+07  2214265    0.21%
 164601 67341    infeasible         2.81594e+07   2.80999e+07  2214265    0.21%
 164602 67342   2.80999e+07    20   2.81594e+07   2.80999e+07  2214327    0.21%
 164603 67341    infeasible         2.81594e+07   2.80999e+07  2214327    0.21%
 164604 67340    infeasible         2.81594e+07   2.80999e+07  2214327    0.21%
 164605 67341   2.81145e+07    20   2.81594e+07   2.80999e+07  2214399    0.21%
 164606 67340    infeasible         2.81594e+07   2.80999e+07  2214399    0.21%
 164607 67339    infeasible         2.81594e+07   2.80999e+07  2214399    0.21%
 164608 67338        cutoff         2.81594e+07   2.80999e+07  2214416    0.21%
Elapsed time = 59.41 sec. (77447.62 ticks, tree = 36.32 MB, solutions = 24)
*171699+67863                       2.81393e+07   2.80999e+07             0.14%
 172624 67982   2.80999e+07    25   2.81393e+07   2.80999e+07  2330598    0.14%
 172625 67983   2.80999e+07    25   2.81393e+07   2.80999e+07  2330608    0.14%
 172626 67982        cutoff         2.81393e+07   2.80999e+07  2330632    0.14%
 172627 67983   2.80999e+07    26   2.81393e+07   2.80999e+07  2330633    0.14%
 172628 67984   2.80999e+07    26   2.81393e+07   2.80999e+07  2330634    0.14%
 172629 67985   2.80999e+07    26   2.81393e+07   2.80999e+07  2330637    0.14%
 172630 67986   2.80999e+07    24   2.81393e+07   2.80999e+07  2330651    0.14%
 172631 67987   2.80999e+07    24   2.81393e+07   2.80999e+07  2330660    0.14%
 172632 67988   2.80999e+07    22   2.81393e+07   2.80999e+07  2330708    0.14%
 172633 67989   2.80999e+07    25   2.81393e+07   2.80999e+07  2330743    0.14%
Elapsed time = 62.47 sec. (81269.98 ticks, tree = 36.69 MB, solutions = 25)
 177949 69454   2.80999e+07    18   2.81393e+07   2.80999e+07  2441798    0.14%
 177950 69455   2.80999e+07    20   2.81393e+07   2.80999e+07  2441824    0.14%
 177951 69456   2.80999e+07    19   2.81393e+07   2.80999e+07  2441825    0.14%
 177952 69457   2.80999e+07    25   2.81393e+07   2.80999e+07  2441857    0.14%
 177953 69456        cutoff         2.81393e+07   2.80999e+07  2441867    0.14%
 177954 69455        cutoff         2.81393e+07   2.80999e+07  2441929    0.14%
 177955 69456   2.80999e+07    20   2.81393e+07   2.80999e+07  2441950    0.14%
 177956 69457   2.80999e+07    18   2.81393e+07   2.80999e+07  2441953    0.14%
 177957 69458   2.80999e+07    19   2.81393e+07   2.80999e+07  2441970    0.14%
 177958 69459   2.80999e+07    17   2.81393e+07   2.80999e+07  2441981    0.14%
Elapsed time = 66.18 sec. (85089.61 ticks, tree = 37.45 MB, solutions = 25)
*180599+69579                       2.81330e+07   2.80999e+07             0.12%
 183259 69948   2.80999e+07    22   2.81330e+07   2.80999e+07  2552118    0.12%
 183260 69949   2.80999e+07    26   2.81330e+07   2.80999e+07  2552131    0.12%
 183261 69950   2.80999e+07    29   2.81330e+07   2.80999e+07  2552174    0.12%
 183262 69951   2.80999e+07    27   2.81330e+07   2.80999e+07  2552183    0.12%
 183263 69952   2.80999e+07    28   2.81330e+07   2.80999e+07  2552206    0.12%
 183264 69953   2.80999e+07    26   2.81330e+07   2.80999e+07  2552224    0.12%
 183265 69954   2.80999e+07    22   2.81330e+07   2.80999e+07  2552269    0.12%
 183266 69955   2.80999e+07    24   2.81330e+07   2.80999e+07  2552272    0.12%
 183267 69956   2.80999e+07    19   2.81330e+07   2.80999e+07  2552275    0.12%
 183268 69957   2.80999e+07    22   2.81330e+07   2.80999e+07  2552290    0.12%
Elapsed time = 69.86 sec. (88910.26 ticks, tree = 37.71 MB, solutions = 26)
 188641 71575        cutoff         2.81330e+07   2.80999e+07  2663591    0.12%
 188642 71574        cutoff         2.81330e+07   2.80999e+07  2663601    0.12%
 188643 71575   2.80999e+07    26   2.81330e+07   2.80999e+07  2663632    0.12%
 188644 71576   2.80999e+07    27   2.81330e+07   2.80999e+07  2663635    0.12%
 188645 71577   2.80999e+07    24   2.81330e+07   2.80999e+07  2663645    0.12%
 188646 71578   2.80999e+07    33   2.81330e+07   2.80999e+07  2663667    0.12%
 188647 71579   2.80999e+07    34   2.81330e+07   2.80999e+07  2663701    0.12%
 188648 71578        cutoff         2.81330e+07   2.80999e+07  2663728    0.12%
 188649 71579   2.80999e+07    34   2.81330e+07   2.80999e+07  2663733    0.12%
 188650 71578    infeasible         2.81330e+07   2.80999e+07  2663733    0.12%
Elapsed time = 73.71 sec. (92730.76 ticks, tree = 38.54 MB, solutions = 26)
*195211 75341      integral     0   2.81328e+07   2.80999e+07  2757136    0.12%
 196380 75957   2.80999e+07    26   2.81328e+07   2.80999e+07  2772491    0.12%
 196381 75958   2.80999e+07    29   2.81328e+07   2.80999e+07  2772505    0.12%
 196382 75959   2.80999e+07    25   2.81328e+07   2.80999e+07  2772515    0.12%
 196383 75958        cutoff         2.81328e+07   2.80999e+07  2772611    0.12%
 196384 75959   2.80999e+07    27   2.81328e+07   2.80999e+07  2772631    0.12%
 196385 75960   2.80999e+07    28   2.81328e+07   2.80999e+07  2772648    0.12%
 196386 75961   2.80999e+07    25   2.81328e+07   2.80999e+07  2772653    0.12%
 196387 75962   2.80999e+07    23   2.81328e+07   2.80999e+07  2772675    0.12%
 196388 75963   2.80999e+07    22   2.81328e+07   2.80999e+07  2772685    0.12%
 196389 75964   2.80999e+07    24   2.81328e+07   2.80999e+07  2772697    0.12%
Elapsed time = 77.31 sec. (96553.36 ticks, tree = 40.75 MB, solutions = 27)
 204043 80037   2.80999e+07    19   2.81328e+07   2.80999e+07  2881497    0.12%
 204044 80038   2.80999e+07    21   2.81328e+07   2.80999e+07  2881512    0.12%
 204045 80039   2.80999e+07    21   2.81328e+07   2.80999e+07  2881521    0.12%
 204046 80040   2.80999e+07    21   2.81328e+07   2.80999e+07  2881533    0.12%
 204047 80041   2.80999e+07    18   2.81328e+07   2.80999e+07  2881561    0.12%
 204048 80042   2.80999e+07    19   2.81328e+07   2.80999e+07  2881562    0.12%
 204049 80043   2.80999e+07    22   2.81328e+07   2.80999e+07  2881583    0.12%
 204050 80044   2.80999e+07    20   2.81328e+07   2.80999e+07  2881652    0.12%
 204051 80045   2.80999e+07    21   2.81328e+07   2.80999e+07  2881677    0.12%
 204052 80044        cutoff         2.81328e+07   2.80999e+07  2881697    0.12%
Elapsed time = 80.85 sec. (100373.90 ticks, tree = 42.82 MB, solutions = 27)
 211594 83161   2.80999e+07    20   2.81328e+07   2.80999e+07  2988708    0.12%
 211595 83162   2.80999e+07    22   2.81328e+07   2.80999e+07  2988729    0.12%
 211596 83163   2.80999e+07    21   2.81328e+07   2.80999e+07  2988739    0.12%
 211597 83164   2.80999e+07    23   2.81328e+07   2.80999e+07  2988745    0.12%
 211598 83165   2.80999e+07    21   2.81328e+07   2.80999e+07  2988746    0.12%
 211599 83166   2.80999e+07    21   2.81328e+07   2.80999e+07  2988747    0.12%
 211600 83167   2.80999e+07    20   2.81328e+07   2.80999e+07  2988783    0.12%
 211601 83168   2.80999e+07    22   2.81328e+07   2.80999e+07  2988786    0.12%
 211602 83169   2.80999e+07    20   2.81328e+07   2.80999e+07  2988798    0.12%
 211603 83170   2.80999e+07    21   2.81328e+07   2.80999e+07  2988812    0.12%
Elapsed time = 84.43 sec. (104192.31 ticks, tree = 44.38 MB, solutions = 27)
 218752 86245   2.80999e+07    26   2.81328e+07   2.80999e+07  3098281    0.12%
 218753 86246   2.80999e+07    24   2.81328e+07   2.80999e+07  3098284    0.12%
 218754 86247   2.80999e+07    26   2.81328e+07   2.80999e+07  3098290    0.12%
 218755 86248   2.80999e+07    21   2.81328e+07   2.80999e+07  3098300    0.12%
 218756 86249   2.80999e+07    19   2.81328e+07   2.80999e+07  3098308    0.12%
 218757 86250   2.80999e+07    21   2.81328e+07   2.80999e+07  3098329    0.12%
 218758 86251   2.80999e+07    19   2.81328e+07   2.80999e+07  3098330    0.12%
 218759 86252   2.80999e+07    18   2.81328e+07   2.80999e+07  3098333    0.12%
 218760 86253   2.80999e+07    21   2.81328e+07   2.80999e+07  3098338    0.12%
 218761 86254   2.80999e+07    24   2.81328e+07   2.80999e+07  3098352    0.12%
Elapsed time = 88.09 sec. (108010.44 ticks, tree = 45.90 MB, solutions = 27)
 224099 88209   2.80999e+07    24   2.81328e+07   2.80999e+07  3184017    0.12%
 224100 88210   2.80999e+07    24   2.81328e+07   2.80999e+07  3184041    0.12%
 224101 88211   2.80999e+07    23   2.81328e+07   2.80999e+07  3184059    0.12%
 224102 88212   2.80999e+07    23   2.81328e+07   2.80999e+07  3184080    0.12%
 224103 88213   2.80999e+07    29   2.81328e+07   2.80999e+07  3184113    0.12%
 224104 88214   2.80999e+07    26   2.81328e+07   2.80999e+07  3184116    0.12%
 224105 88215   2.80999e+07    22   2.81328e+07   2.80999e+07  3184125    0.12%
 224106 88216   2.80999e+07    22   2.81328e+07   2.80999e+07  3184126    0.12%
 224107 88217   2.80999e+07    25   2.81328e+07   2.80999e+07  3184154    0.12%
 224108 88218   2.80999e+07    25   2.81328e+07   2.80999e+07  3184165    0.12%
Elapsed time = 91.68 sec. (111915.71 ticks, tree = 46.90 MB, solutions = 27)
 227599 89647   2.80999e+07    20   2.81328e+07   2.80999e+07  3233754    0.12%
 227600 89648   2.80999e+07    19   2.81328e+07   2.80999e+07  3233766    0.12%
 227601 89649   2.80999e+07    21   2.81328e+07   2.80999e+07  3233776    0.12%
 227602 89650   2.80999e+07    19   2.81328e+07   2.80999e+07  3233786    0.12%
 227603 89651   2.80999e+07    26   2.81328e+07   2.80999e+07  3233805    0.12%
 227604 89652   2.80999e+07    25   2.81328e+07   2.80999e+07  3233806    0.12%
 227605 89652   2.80999e+07    24   2.81328e+07   2.80999e+07  3233808    0.12%
 227606 89653   2.80999e+07    19   2.81328e+07   2.80999e+07  3233814    0.12%
 227607 89652        cutoff         2.81328e+07   2.80999e+07  3233822    0.12%
 227608 89653   2.80999e+07    18   2.81328e+07   2.80999e+07  3233837    0.12%
Elapsed time = 95.12 sec. (115762.44 ticks, tree = 47.65 MB, solutions = 27)
 234372 92867        cutoff         2.81328e+07   2.80999e+07  3331844    0.12%
 234373 92866        cutoff         2.81328e+07   2.80999e+07  3331852    0.12%
 234374 92865        cutoff         2.81328e+07   2.80999e+07  3331881    0.12%
 234375 92864        cutoff         2.81328e+07   2.80999e+07  3331896    0.12%
 234376 92863        cutoff         2.81328e+07   2.80999e+07  3331914    0.12%
 234377 92862        cutoff         2.81328e+07   2.80999e+07  3331928    0.12%
 234378 92861        cutoff         2.81328e+07   2.80999e+07  3331944    0.12%
 234379 92860        cutoff         2.81328e+07   2.80999e+07  3332007    0.12%
 234380 92859        cutoff         2.81328e+07   2.80999e+07  3332016    0.12%
 234381 92858        cutoff         2.81328e+07   2.80999e+07  3332031    0.12%
Elapsed time = 98.76 sec. (119582.43 ticks, tree = 49.27 MB, solutions = 27)

Cover cuts applied:  352
Mixed integer rounding cuts applied:  5
Zero-half cuts applied:  1
Gomory fractional cuts applied:  9

Root node processing (before b&c):
  Real time             =    0.04 sec. (38.50 ticks)
Sequential b&c:
  Real time             =   99.96 sec. (120882.82 ticks)
                          ------------
Total (root+branch&cut) =  100.00 sec. (120921.32 ticks)

Solution pool: 27 solutions saved.

MIP - Time limit exceeded, integer feasible:  Objective =  2.8132837000e+07
Current MIP best bound =  2.8099855000e+07 (gap = 32982, 0.12%)
Solution time =  100.00 sec.  Iterations = 3368897  Nodes = 236818 (93868)
Deterministic time = 120921.33 ticks  (1209.21 ticks/sec)


Incumbent solution written to file '/tmp/tmp9xjFnD.cplex.sol'.
